
Gurobi 11.0.3 (linux64) logging started Thu Nov 21 23:44:25 2024

Set parameter LogFile to value "/home/yihong/Coding/OR_SUC/SUC_results_bigM100000_thread4/case24_ieee_rts_theta0.5_epsilon0.05_gurobi_seed1130000_num_gen100_N_WDR100_load_scaling_factor1_proposed_T16quadra_cost.txt"
Set parameter TimeLimit to value 3600
Gurobi Optimizer version 11.0.3 build v11.0.3rc0 (linux64 - "Ubuntu 20.04.6 LTS")

CPU model: AMD EPYC 7532 32-Core Processor, instruction set [SSE2|AVX|AVX2]
Thread count: 64 physical cores, 128 logical processors, using up to 4 threads

Optimize a model with 38206 rows, 19941 columns and 876666 nonzeros
Model fingerprint: 0x27def6ab
Model has 1600 quadratic constraints
Variable types: 18341 continuous, 1600 integer (1600 binary)
Coefficient statistics:
  Matrix range     [3e-04, 2e+03]
  QMatrix range    [2e-03, 8e-03]
  QLMatrix range   [3e-01, 6e+01]
  Objective range  [1e+00, 1e+00]
  Bounds range     [1e+00, 1e+00]
  RHS range        [1e+00, 9e+03]
Presolve removed 31205 rows and 8475 columns
Presolve time: 0.28s
Presolved: 7001 rows, 11466 columns, 38915 nonzeros
Presolved model has 1600 quadratic constraint(s)
Variable types: 9866 continuous, 1600 integer (1600 binary)

Root relaxation: objective 3.472633e+04, 5750 iterations, 0.14 seconds (0.20 work units)

    Nodes    |    Current Node    |     Objective Bounds      |     Work
 Expl Unexpl |  Obj  Depth IntInf | Incumbent    BestBd   Gap | It/Node Time

H    0     0                    473768.70847 34726.3275  92.7%     -    0s
*    0     0               0    473768.70847 34726.3275  92.7%     -    0s
     0     0 268057.910    0  426 473768.708 268057.910  43.4%     -    0s
     0     0 436907.122    0  175 473768.708 436907.122  7.78%     -    1s
     0     0 437011.556    0  102 473768.708 437011.556  7.76%     -    1s
     0     0 437011.556    0  102 473768.708 437011.556  7.76%     -    1s
     0     0 437016.699    0  102 473768.708 437016.699  7.76%     -    1s
     0     0 437016.699    0  102 473768.708 437016.699  7.76%     -    1s
     0     0 437019.959    0  102 473768.708 437019.959  7.76%     -    1s
     0     2 437019.959    0  102 473768.708 437019.959  7.76%     -    2s
H  112   118                    437231.26430 437035.152  0.04%  54.7    4s
*  112   118              30    437231.26430 437035.152  0.04%  54.8    4s

Cutting planes:
  Gomory: 32
  Lift-and-project: 16
  Implied bound: 233
  MIR: 32
  Flow cover: 98
  RLT: 253
  Relax-and-lift: 64

Explored 125 nodes (19700 simplex iterations) in 4.98 seconds (7.11 work units)
Thread count was 4 (of 128 available processors)

Solution count 3: 437231 437231 473769 

Optimal solution found (tolerance 1.00e-03)
Warning: max constraint violation (7.1154e-08) exceeds tolerance
Best objective 4.372312642990e+05, best bound 4.370351521859e+05, gap 0.0449%
